$ ../../src/pp-online obj.pddl init.pddl predicates.pddl acts.pddl graph.txt 123 lmcut_trap

Checking plan: emptyplan.tmp
Plan executed successfully - checking goal
Goal not satisfied
Plan invalid


Failed plans:
 emptyplan.tmp 
 --- OK.
 Match tree built with 1522 nodes.

PDDL problem description loaded: 
	Domain: WOODWORKING
	Problem: WOOD-PROB
	#Actions: 1522
	#Fluents: 114
Time to initialize h^2: 0.002418 secs
Time to evaluate h^2: 0.0381 secs
h^2 value = 3.40282e+38
A1 Candidates: 16
A2 Candidates: 572
A3 Candidates: 16
--> Trying to build the MEGA TRAP!!!
Generating the graph...
Data Structures generated! Time: 0.043097
in/out nodes generated! Time: 0.159696
Sinks computed! Time: 0.000555992
Propagating the sink nodes! Time: 0.00372201
Building the resulting mega trap...
Done!

Final trap:

 -{ MegaTrap }-

Candidates: 572
     Sinks: 562
Trap Valid: 1

A1 Candidates: 17
A2 Candidates: 92
A3 Candidates: 17
--> Trying to build the MEGA TRAP!!!
Generating the graph...
Data Structures generated! Time: 0.005869
in/out nodes generated! Time: 0.00875401
Sinks computed! Time: 0.000203997
Propagating the sink nodes! Time: 0.000880003
Building the resulting mega trap...
Done!

Final trap:

 -{ MegaTrap }-

Candidates: 92
     Sinks: 76
Trap Valid: 1

A1 Candidates: 15
A2 Candidates: 497
A3 Candidates: 15
--> Trying to build the MEGA TRAP!!!
Generating the graph...
Data Structures generated! Time: 0.035602
in/out nodes generated! Time: 0.082341
Sinks computed! Time: 0.000335991
Propagating the sink nodes! Time: 0.002211
Building the resulting mega trap...
Done!

Final trap:

 -{ MegaTrap }-

Candidates: 497
     Sinks: 487
Trap Valid: 1

A1 Candidates: 16
A2 Candidates: 594
A3 Candidates: 16
--> Trying to build the MEGA TRAP!!!
Generating the graph...
Data Structures generated! Time: 0.043168
in/out nodes generated! Time: 0.109506
Sinks computed! Time: 0.000374019
Propagating the sink nodes! Time: 0.00298303
Building the resulting mega trap...
Done!

Final trap:

 -{ MegaTrap }-

Candidates: 594
     Sinks: 584
Trap Valid: 1

A1 Candidates: 16
A2 Candidates: 586
A3 Candidates: 16
--> Trying to build the MEGA TRAP!!!
Generating the graph...
Data Structures generated! Time: 0.048063
in/out nodes generated! Time: 0.181509
Sinks computed! Time: 0.00119698
Propagating the sink nodes! Time: 0.00415903
Building the resulting mega trap...
Done!

Final trap:

 -{ MegaTrap }-

Candidates: 586
     Sinks: 576
Trap Valid: 1

A1 Candidates: 15
A2 Candidates: 488
A3 Candidates: 15
--> Trying to build the MEGA TRAP!!!
Generating the graph...
Data Structures generated! Time: 0.041732
in/out nodes generated! Time: 0.152613
Sinks computed! Time: 0.00101298
Propagating the sink nodes! Time: 0.00354797
Building the resulting mega trap...
Done!

Final trap:

 -{ MegaTrap }-

Candidates: 488
     Sinks: 478
Trap Valid: 1

A1 Candidates: 16
A2 Candidates: 586
A3 Candidates: 16
--> Trying to build the MEGA TRAP!!!
Generating the graph...
Data Structures generated! Time: 0.046102
in/out nodes generated! Time: 0.184856
Sinks computed! Time: 0.000831962
Propagating the sink nodes! Time: 0.00403404
Building the resulting mega trap...
Done!

Final trap:

 -{ MegaTrap }-

Candidates: 586
     Sinks: 576
Trap Valid: 1

A1 Candidates: 12
A2 Candidates: 101
A3 Candidates: 12
--> Trying to build the MEGA TRAP!!!
Generating the graph...
Data Structures generated! Time: 0.00823402
in/out nodes generated! Time: 0.011307
Sinks computed! Time: 5.49555e-05
Propagating the sink nodes! Time: 0.000271082
Building the resulting mega trap...
Done!

Final trap:

 -{ MegaTrap }-

Candidates: 101
     Sinks: 90
Trap Valid: 1

A1 Candidates: 16
A2 Candidates: 586
A3 Candidates: 16
--> Trying to build the MEGA TRAP!!!
Generating the graph...
Data Structures generated! Time: 0.0512661
in/out nodes generated! Time: 0.181877
Sinks computed! Time: 0.00104606
Propagating the sink nodes! Time: 0.00409901
Building the resulting mega trap...
Done!

Final trap:

 -{ MegaTrap }-

Candidates: 586
     Sinks: 576
Trap Valid: 1

A1 Candidates: 12
A2 Candidates: 101
A3 Candidates: 12
--> Trying to build the MEGA TRAP!!!
Generating the graph...
Data Structures generated! Time: 0.0088321
in/out nodes generated! Time: 0.012105
Sinks computed! Time: 7.29561e-05
Propagating the sink nodes! Time: 0.000190973
Building the resulting mega trap...
Done!

Final trap:

 -{ MegaTrap }-

Candidates: 101
     Sinks: 90
Trap Valid: 1

A1 Candidates: 16
A2 Candidates: 586
A3 Candidates: 16
--> Trying to build the MEGA TRAP!!!
Generating the graph...
Data Structures generated! Time: 0.0555919
in/out nodes generated! Time: 0.181411
Sinks computed! Time: 0.00102103
Propagating the sink nodes! Time: 0.00408196
Building the resulting mega trap...
Done!

Final trap:

 -{ MegaTrap }-

Candidates: 586
     Sinks: 576
Trap Valid: 1

A1 Candidates: 15
A2 Candidates: 488
A3 Candidates: 15
--> Trying to build the MEGA TRAP!!!
Generating the graph...
Data Structures generated! Time: 0.039705
in/out nodes generated! Time: 0.143368
Sinks computed! Time: 0.00110292
Propagating the sink nodes! Time: 0.003461
Building the resulting mega trap...
Done!

Final trap:

 -{ MegaTrap }-

Candidates: 488
     Sinks: 478
Trap Valid: 1

A1 Candidates: 16
A2 Candidates: 588
A3 Candidates: 16
--> Trying to build the MEGA TRAP!!!
Generating the graph...
Data Structures generated! Time: 0.047263
in/out nodes generated! Time: 0.199816
Sinks computed! Time: 0.000935793
Propagating the sink nodes! Time: 0.004807
Building the resulting mega trap...
Done!

Final trap:

 -{ MegaTrap }-

Candidates: 588
     Sinks: 578
Trap Valid: 1

A1 Candidates: 16
A2 Candidates: 586
A3 Candidates: 16
--> Trying to build the MEGA TRAP!!!
Generating the graph...
Data Structures generated! Time: 0.046247
in/out nodes generated! Time: 0.181851
Sinks computed! Time: 0.000993967
Propagating the sink nodes! Time: 0.00401998
Building the resulting mega trap...
Done!

Final trap:

 -{ MegaTrap }-

Candidates: 586
     Sinks: 576
Trap Valid: 1

A1 Candidates: 12
A2 Candidates: 101
A3 Candidates: 12
--> Trying to build the MEGA TRAP!!!
Generating the graph...
Data Structures generated! Time: 0.00832677
in/out nodes generated! Time: 0.011446
Sinks computed! Time: 5.72205e-05
Propagating the sink nodes! Time: 0.000250816
Building the resulting mega trap...
Done!

Final trap:

 -{ MegaTrap }-

Candidates: 101
     Sinks: 90
Trap Valid: 1

A1 Candidates: 15
A2 Candidates: 497
A3 Candidates: 15
--> Trying to build the MEGA TRAP!!!
Generating the graph...
Data Structures generated! Time: 0.0364659
in/out nodes generated! Time: 0.085521
Sinks computed! Time: 0.000354052
Propagating the sink nodes! Time: 0.00243592
Building the resulting mega trap...
Done!

Final trap:

 -{ MegaTrap }-

Candidates: 497
     Sinks: 487
Trap Valid: 1

A1 Candidates: 14
A2 Candidates: 400
A3 Candidates: 14
--> Trying to build the MEGA TRAP!!!
Generating the graph...
Data Structures generated! Time: 0.0326571
in/out nodes generated! Time: 0.062624
Sinks computed! Time: 0.000305891
Propagating the sink nodes! Time: 0.0021441
Building the resulting mega trap...
Done!

Final trap:

 -{ MegaTrap }-

Candidates: 400
     Sinks: 390
Trap Valid: 1

A1 Candidates: 16
A2 Candidates: 594
A3 Candidates: 16
--> Trying to build the MEGA TRAP!!!
Generating the graph...
Data Structures generated! Time: 0.0445468
in/out nodes generated! Time: 0.106665
Sinks computed! Time: 0.000357866
Propagating the sink nodes! Time: 0.00274086
Building the resulting mega trap...
Done!

Final trap:

 -{ MegaTrap }-

Candidates: 594
     Sinks: 584
Trap Valid: 1

Size: 189
[ 
 { (BOARDSIZE B2 S7) }
 { (BOARDSIZE B0 S6) }
 { (BOARDSIZE B3 S5) }
 { (BOARDSIZE B1 S1) }
 { (BOARDSIZE B2 S1) }
 { (BOARDSIZE B4 S1) }
 { (BOARDSIZE B0 S0) }
 { (BOARDSIZE B2 S4) }
 { (BOARDSIZE B0 S3) }
 { (BOARDSIZE B3 S2) }
 { (WOOD P0 TEAK) }
 { (BOARDSIZE B0 S8) }
 { (BOARDSIZE B2 S7) }
 { (BOARDSIZE B0 S6) }
 { (BOARDSIZE B3 S5) }
 { (BOARDSIZE B1 S3) }
 { (BOARDSIZE B0 S2) }
 { (BOARDSIZE B1 S1) }
 { (BOARDSIZE B2 S1) }
 { (BOARDSIZE B4 S1) }
 { (BOARDSIZE B0 S0) }
 { (BOARDSIZE B0 S5) }
 { (BOARDSIZE B2 S4) }
 { (BOARDSIZE B0 S3) }
 { (BOARDSIZE B3 S2) }
 { (BOARDSIZE B1 S0) }
 { (BOARDSIZE B2 S7) }
 { (BOARDSIZE B0 S6) }
 { (BOARDSIZE B3 S5) }
 { (BOARDSIZE B1 S1) }
 { (BOARDSIZE B2 S1) }
 { (BOARDSIZE B4 S1) }
 { (BOARDSIZE B0 S0) }
 { (BOARDSIZE B2 S4) }
 { (BOARDSIZE B0 S3) }
 { (BOARDSIZE B3 S2) }
 { (BOARDSIZE B2 S7) }
 { (BOARDSIZE B0 S6) }
 { (BOARDSIZE B3 S5) }
 { (BOARDSIZE B1 S1) }
 { (BOARDSIZE B2 S1) }
 { (BOARDSIZE B4 S1) }
 { (BOARDSIZE B0 S0) }
 { (BOARDSIZE B2 S4) }
 { (BOARDSIZE B0 S3) }
 { (BOARDSIZE B3 S2) }
 { (BOARDSIZE B2 S7) }
 { (BOARDSIZE B0 S6) }
 { (BOARDSIZE B3 S5) }
 { (BOARDSIZE B1 S1) }
 { (BOARDSIZE B2 S1) }
 { (BOARDSIZE B4 S1) }
 { (BOARDSIZE B0 S0) }
 { (BOARDSIZE B2 S4) }
 { (BOARDSIZE B0 S3) }
 { (BOARDSIZE B3 S2) }
 { (BOARDSIZE B2 S7) }
 { (BOARDSIZE B0 S6) }
 { (BOARDSIZE B3 S5) }
 { (BOARDSIZE B1 S1) }
 { (BOARDSIZE B2 S1) }
 { (BOARDSIZE B4 S1) }
 { (BOARDSIZE B0 S0) }
 { (BOARDSIZE B2 S4) }
 { (BOARDSIZE B0 S3) }
 { (BOARDSIZE B3 S2) }
 { (BOARDSIZE B2 S7) }
 { (BOARDSIZE B0 S6) }
 { (BOARDSIZE B3 S5) }
 { (BOARDSIZE B1 S1) }
 { (BOARDSIZE B2 S1) }
 { (BOARDSIZE B4 S1) }
 { (BOARDSIZE B0 S0) }
 { (BOARDSIZE B2 S4) }
 { (BOARDSIZE B0 S3) }
 { (BOARDSIZE B3 S2) }
 { (BOARDSIZE B2 S7) }
 { (BOARDSIZE B0 S6) }
 { (BOARDSIZE B3 S5) }
 { (BOARDSIZE B1 S1) }
 { (BOARDSIZE B2 S1) }
 { (BOARDSIZE B4 S1) }
 { (BOARDSIZE B0 S0) }
 { (WOOD P3 TEAK) }
 { (BOARDSIZE B2 S4) }
 { (BOARDSIZE B0 S3) }
 { (BOARDSIZE B3 S2) }
 { (BOARDSIZE B2 S7) }
 { (BOARDSIZE B0 S6) }
 { (BOARDSIZE B3 S5) }
 { (BOARDSIZE B1 S1) }
 { (BOARDSIZE B2 S1) }
 { (BOARDSIZE B4 S1) }
 { (BOARDSIZE B0 S0) }
 { (BOARDSIZE B2 S4) }
 { (BOARDSIZE B0 S3) }
 { (BOARDSIZE B3 S2) }
 { (BOARDSIZE B2 S7) }
 { (BOARDSIZE B0 S6) }
 { (BOARDSIZE B3 S5) }
 { (BOARDSIZE B1 S1) }
 { (BOARDSIZE B2 S1) }
 { (BOARDSIZE B4 S1) }
 { (BOARDSIZE B0 S0) }
 { (WOOD P3 WALNUT) }
 { (BOARDSIZE B2 S4) }
 { (BOARDSIZE B0 S3) }
 { (BOARDSIZE B3 S2) }
 { (BOARDSIZE B2 S7) }
 { (BOARDSIZE B0 S6) }
 { (BOARDSIZE B3 S5) }
 { (BOARDSIZE B1 S1) }
 { (BOARDSIZE B2 S1) }
 { (BOARDSIZE B4 S1) }
 { (BOARDSIZE B0 S0) }
 { (BOARDSIZE B2 S4) }
 { (BOARDSIZE B0 S3) }
 { (BOARDSIZE B3 S2) }
 { (BOARDSIZE B2 S7) }
 { (BOARDSIZE B0 S6) }
 { (BOARDSIZE B3 S5) }
 { (BOARDSIZE B1 S1) }
 { (BOARDSIZE B2 S1) }
 { (BOARDSIZE B4 S1) }
 { (BOARDSIZE B0 S0) }
 { (BOARDSIZE B2 S4) }
 { (BOARDSIZE B0 S3) }
 { (BOARDSIZE B3 S2) }
 { (BOARDSIZE B2 S7) }
 { (BOARDSIZE B0 S6) }
 { (BOARDSIZE B3 S5) }
 { (BOARDSIZE B1 S1) }
 { (BOARDSIZE B2 S1) }
 { (BOARDSIZE B4 S1) }
 { (BOARDSIZE B0 S0) }
 { (BOARDSIZE B2 S4) }
 { (BOARDSIZE B0 S3) }
 { (BOARDSIZE B3 S2) }
 { (BOARDSIZE B2 S7) }
 { (BOARDSIZE B0 S6) }
 { (BOARDSIZE B3 S5) }
 { (BOARDSIZE B1 S1) }
 { (BOARDSIZE B2 S1) }
 { (BOARDSIZE B4 S1) }
 { (BOARDSIZE B0 S0) }
 { (BOARDSIZE B2 S4) }
 { (BOARDSIZE B0 S3) }
 { (BOARDSIZE B3 S2) }
 { (BOARDSIZE B2 S7) }
 { (BOARDSIZE B0 S6) }
 { (BOARDSIZE B3 S5) }
 { (BOARDSIZE B1 S1) }
 { (BOARDSIZE B2 S1) }
 { (BOARDSIZE B4 S1) }
 { (BOARDSIZE B0 S0) }
 { (WOOD P2 TEAK) }
 { (BOARDSIZE B2 S4) }
 { (BOARDSIZE B0 S3) }
 { (BOARDSIZE B3 S2) }
 { (BOARDSIZE B2 S7) }
 { (BOARDSIZE B0 S6) }
 { (BOARDSIZE B3 S5) }
 { (BOARDSIZE B1 S1) }
 { (BOARDSIZE B2 S1) }
 { (BOARDSIZE B4 S1) }
 { (BOARDSIZE B0 S0) }
 { (BOARDSIZE B2 S4) }
 { (BOARDSIZE B0 S3) }
 { (BOARDSIZE B3 S2) }
 { (BOARDSIZE B2 S7) }
 { (BOARDSIZE B0 S6) }
 { (BOARDSIZE B3 S5) }
 { (BOARDSIZE B1 S1) }
 { (BOARDSIZE B2 S1) }
 { (BOARDSIZE B4 S1) }
 { (BOARDSIZE B0 S0) }
 { (BOARDSIZE B2 S4) }
 { (BOARDSIZE B0 S3) }
 { (BOARDSIZE B3 S2) }
 { (BOARDSIZE B2 S7) }
 { (BOARDSIZE B0 S6) }
 { (BOARDSIZE B3 S5) }
 { (BOARDSIZE B1 S1) }
 { (BOARDSIZE B2 S1) }
 { (BOARDSIZE B4 S1) }
 { (BOARDSIZE B0 S0) }
 { (BOARDSIZE B2 S4) }
 { (BOARDSIZE B0 S3) }
 { (BOARDSIZE B3 S2) }
]
Goal 0 - (COLOUR P0 MAUVE)
Future Goals size:18
Goals size:1
Search starts: 
	 Bound: 3.40282e+38
	 Best h(n) = 2, expanded: 0, generated: 1
	 Best h(n) = 1, expanded: 1, generated: 23
Plan found with cost: 2
Time: 0.0329599
Generated: 100
Expanded: 4
Total time: 0.032979
Traps comuted offline: 0
Traps comuted online: 0
PSC Trapped deadends: 99
H2 Trapped deadends: 0
H1 Trapped deadends: 0
Nodes generated during search: 101
Nodes expanded during search: 4
0.032979Checking plan: soln.tmp
Plan executed successfully - checking goal
Plan valid
Final value: 2

Successful plans:
Value: 2
 soln.tmp 



NUMERIC_THREATS_MODE: 0

; Command line: /home/ssardina/git/soft/planning/app/app-trapper.git/tools/lpg -f pfile.pddl -o domain.pddl -n 1 -input_plan soln.tmp -seed 1234 -same_objects   


Parsing domain file:  domain 'WOODWORKING' defined ... done.
Parsing problem file:  problem 'WOOD-PROB' defined ... done.



Modality: Incremental Planner

Number of actions             :    1546
Number of conditional actions :       0
Number of facts               :     114


Analyzing Planning Problem:
	Temporal Planning Problem: NO
	Numeric Planning Problem: NO
	Problem with Timed Initial Literals: NO
	Problem with Derived Predicates: NO

Evaluation function weights:
     Action duration 0.00; Action cost 1.00


Computing mutex... done

 Load input plan:


 1.0000: (DO-SAW-MEDIUM B4 P0 SAW2 WALNUT SMOOTH S5 S4 S3) [D:1.0000; C:1.0000]
 2.0000: (DO-GLAZE P0 GLAZER0 MAUVE) [D:1.0000; C:1.0000]


Preprocessing total time: 0.02 seconds

Searching ('.' = every 50 search steps):
 solution found: 
 first_solution_cpu_time: 0.02 

Plan computed:
   Time: (ACTION) [action Duration; action Cost]
 0.0000: (DO-SAW-MEDIUM B4 P0 SAW2 WALNUT SMOOTH S5 S4 S3) [D:1.00; C:1.00]
 1.0000: (DO-GLAZE P0 GLAZER0 MAUVE) [D:1.00; C:1.00]


Solution number: 1
Total time:      0.02
Search time:     0.00
Actions:         2
Duration:        2.000
Plan quality:    2.000 
Total Num Flips: 1
Distance from input plan: 0 
     Plan file:       plan_pfile.pddl_1.SOL

Checking plan: emptyplan.tmp
Plan executed successfully - checking goal
Plan valid
Final value: 0

Successful plans:
Value: 0
 emptyplan.tmp 

Checking plan: emptyplan.tmp
Plan executed successfully - checking goal
Plan valid
Final value: 0

Successful plans:
Value: 0
 emptyplan.tmp 

Checking plan: emptyplan.tmp
Plan executed successfully - checking goal
Goal not satisfied
Plan invalid


Failed plans:
 emptyplan.tmp 
 --- OK.
 Match tree built with 1138 nodes.

PDDL problem description loaded: 
	Domain: WOODWORKING
	Problem: WOOD-PROB
	#Actions: 1138
	#Fluents: 86
Time to initialize h^2: 0.0015 secs
Time to evaluate h^2: 0.016709 secs
h^2 value = 3.40282e+38
A1 Candidates: 6
A2 Candidates: 476
A3 Candidates: 6
--> Trying to build the MEGA TRAP!!!
Generating the graph...
Data Structures generated! Time: 0.030754
in/out nodes generated! Time: 0.078952
Sinks computed! Time: 0.000363007
Propagating the sink nodes! Time: 0.001965
Building the resulting mega trap...
Done!

Final trap:

 -{ MegaTrap }-

Candidates: 476
     Sinks: 476
Trap Valid: 1

A1 Candidates: 6
A2 Candidates: 468
A3 Candidates: 6
--> Trying to build the MEGA TRAP!!!
Generating the graph...
Data Structures generated! Time: 0.029297
in/out nodes generated! Time: 0.116933
Sinks computed! Time: 0.000582993
Propagating the sink nodes! Time: 0.00251299
Building the resulting mega trap...
Done!

Final trap:

 -{ MegaTrap }-

Candidates: 468
     Sinks: 468
Trap Valid: 1

A1 Candidates: 5
A2 Candidates: 388
A3 Candidates: 5
--> Trying to build the MEGA TRAP!!!
Generating the graph...
Data Structures generated! Time: 0.024472
in/out nodes generated! Time: 0.105685
Sinks computed! Time: 0.000416994
Propagating the sink nodes! Time: 0.00213301
Building the resulting mega trap...
Done!

Final trap:

 -{ MegaTrap }-

Candidates: 388
     Sinks: 388
Trap Valid: 1

A1 Candidates: 6
A2 Candidates: 468
A3 Candidates: 6
--> Trying to build the MEGA TRAP!!!
Generating the graph...
Data Structures generated! Time: 0.033593
in/out nodes generated! Time: 0.129735
Sinks computed! Time: 0.000504971
Propagating the sink nodes! Time: 0.00306797
Building the resulting mega trap...
Done!

Final trap:

 -{ MegaTrap }-

Candidates: 468
     Sinks: 468
Trap Valid: 1

A1 Candidates: 2
A2 Candidates: 73
A3 Candidates: 2
--> Trying to build the MEGA TRAP!!!
Generating the graph...
Data Structures generated! Time: 0.00603402
in/out nodes generated! Time: 0.00549698
Sinks computed! Time: 4.39882e-05
Propagating the sink nodes! Time: 0.000144958
Building the resulting mega trap...
Done!

Final trap:

 -{ MegaTrap }-

Candidates: 73
     Sinks: 72
Trap Valid: 1

A1 Candidates: 6
A2 Candidates: 468
A3 Candidates: 6
--> Trying to build the MEGA TRAP!!!
Generating the graph...
Data Structures generated! Time: 0.033742
in/out nodes generated! Time: 0.179744
Sinks computed! Time: 0.000542045
Propagating the sink nodes! Time: 0.00266701
Building the resulting mega trap...
Done!

Final trap:

 -{ MegaTrap }-

Candidates: 468
     Sinks: 468
Trap Valid: 1

A1 Candidates: 2
A2 Candidates: 73
A3 Candidates: 2
--> Trying to build the MEGA TRAP!!!
Generating the graph...
Data Structures generated! Time: 0.004547
in/out nodes generated! Time: 0.00567496
Sinks computed! Time: 6.20484e-05
Propagating the sink nodes! Time: 0.000106037
Building the resulting mega trap...
Done!

Final trap:

 -{ MegaTrap }-

Candidates: 73
     Sinks: 72
Trap Valid: 1

A1 Candidates: 6
A2 Candidates: 468
A3 Candidates: 6
--> Trying to build the MEGA TRAP!!!
Generating the graph...
Data Structures generated! Time: 0.029686
in/out nodes generated! Time: 0.109987
Sinks computed! Time: 0.000405967
Propagating the sink nodes! Time: 0.002433
Building the resulting mega trap...
Done!

Final trap:

 -{ MegaTrap }-

Candidates: 468
     Sinks: 468
Trap Valid: 1

A1 Candidates: 5
A2 Candidates: 388
A3 Candidates: 5
--> Trying to build the MEGA TRAP!!!
Generating the graph...
Data Structures generated! Time: 0.023521
in/out nodes generated! Time: 0.08841
Sinks computed! Time: 0.000450015
Propagating the sink nodes! Time: 0.00221205
Building the resulting mega trap...
Done!

Final trap:

 -{ MegaTrap }-

Candidates: 388
     Sinks: 388
Trap Valid: 1

A1 Candidates: 6
A2 Candidates: 470
A3 Candidates: 6
--> Trying to build the MEGA TRAP!!!
Generating the graph...
Data Structures generated! Time: 0.027315
in/out nodes generated! Time: 0.117542
Sinks computed! Time: 0.000509024
Propagating the sink nodes! Time: 0.00280106
Building the resulting mega trap...
Done!

Final trap:

 -{ MegaTrap }-

Candidates: 470
     Sinks: 470
Trap Valid: 1

A1 Candidates: 6
A2 Candidates: 468
A3 Candidates: 6
--> Trying to build the MEGA TRAP!!!
Generating the graph...
Data Structures generated! Time: 0.0292519
in/out nodes generated! Time: 0.113241
Sinks computed! Time: 0.000579
Propagating the sink nodes! Time: 0.00260293
Building the resulting mega trap...
Done!

Final trap:

 -{ MegaTrap }-

Candidates: 468
     Sinks: 468
Trap Valid: 1

A1 Candidates: 2
A2 Candidates: 73
A3 Candidates: 2
--> Trying to build the MEGA TRAP!!!
Generating the graph...
Data Structures generated! Time: 0.004264
in/out nodes generated! Time: 0.00521505
Sinks computed! Time: 4.49419e-05
Propagating the sink nodes! Time: 0.00010407
Building the resulting mega trap...
Done!

Final trap:

 -{ MegaTrap }-

Candidates: 73
     Sinks: 72
Trap Valid: 1

Size: 3
[ 
 { (WOOD P3 TEAK) }
 { (WOOD P3 WALNUT) }
 { (WOOD P2 TEAK) }
]
Goal 0 - (COLOUR P1 BLUE)
Future Goals size:12
Goals size:1
Search starts: 
	 Bound: 3.40282e+38
	 Best h(n) = 2, expanded: 0, generated: 1
	 Best h(n) = 1, expanded: 1, generated: 23
Plan found with cost: 2
Time: 0.017471
Generated: 50
Expanded: 2
Total time: 0.017493
Traps comuted offline: 0
Traps comuted online: 0
PSC Trapped deadends: 48
H2 Trapped deadends: 0
H1 Trapped deadends: 0
Nodes generated during search: 51
Nodes expanded during search: 2
0.017493Checking plan: soln.tmp
Plan executed successfully - checking goal
Plan valid
Final value: 2

Successful plans:
Value: 2
 soln.tmp 



NUMERIC_THREATS_MODE: 0

; Command line: /home/ssardina/git/soft/planning/app/app-trapper.git/tools/lpg -f pfile.pddl -o domain.pddl -n 1 -input_plan soln.tmp -seed 1234 -same_objects   


Parsing domain file:  domain 'WOODWORKING' defined ... done.
Parsing problem file:  problem 'WOOD-PROB' defined ... done.



Modality: Incremental Planner

Number of actions             :    1162
Number of conditional actions :       0
Number of facts               :      86


Analyzing Planning Problem:
	Temporal Planning Problem: NO
	Numeric Planning Problem: NO
	Problem with Timed Initial Literals: NO
	Problem with Derived Predicates: NO

Evaluation function weights:
     Action duration 0.00; Action cost 1.00


Computing mutex... done

 Load input plan:


 1.0000: (DO-PLANE P1 PLANER2 ROUGH MAUVE GLAZED) [D:1.0000; C:1.0000]
 2.0000: (DO-SPRAY-VARNISH P1 SPRAY-VARNISHER2 BLUE SMOOTH) [D:1.0000; C:1.0000]


Preprocessing total time: 0.01 seconds

Searching ('.' = every 50 search steps):
 solution found: 
 first_solution_cpu_time: 0.01 

Plan computed:
   Time: (ACTION) [action Duration; action Cost]
 0.0000: (DO-PLANE P1 PLANER2 ROUGH MAUVE GLAZED) [D:1.00; C:1.00]
 1.0000: (DO-SPRAY-VARNISH P1 SPRAY-VARNISHER2 BLUE SMOOTH) [D:1.00; C:1.00]


Solution number: 1
Total time:      0.01
Search time:     0.00
Actions:         2
Duration:        2.000
Plan quality:    2.000 
Total Num Flips: 1
Distance from input plan: 0 
     Plan file:       plan_pfile.pddl_1.SOL

Checking plan: emptyplan.tmp
Plan executed successfully - checking goal
Goal not satisfied
Plan invalid


Failed plans:
 emptyplan.tmp 
 --- OK.
 Match tree built with 1090 nodes.

PDDL problem description loaded: 
	Domain: WOODWORKING
	Problem: WOOD-PROB
	#Actions: 1090
	#Fluents: 85
Time to initialize h^2: 0.001375 secs
Time to evaluate h^2: 0.017185 secs
h^2 value = 3.40282e+38
A1 Candidates: 6
A2 Candidates: 462
A3 Candidates: 6
--> Trying to build the MEGA TRAP!!!
Generating the graph...
Data Structures generated! Time: 0.02678
in/out nodes generated! Time: 0.109452
Sinks computed! Time: 0.000618011
Propagating the sink nodes! Time: 0.00268501
Building the resulting mega trap...
Done!

Final trap:

 -{ MegaTrap }-

Candidates: 462
     Sinks: 462
Trap Valid: 1

A1 Candidates: 5
A2 Candidates: 383
A3 Candidates: 5
--> Trying to build the MEGA TRAP!!!
Generating the graph...
Data Structures generated! Time: 0.022628
in/out nodes generated! Time: 0.086838
Sinks computed! Time: 0.000564992
Propagating the sink nodes! Time: 0.002462
Building the resulting mega trap...
Done!

Final trap:

 -{ MegaTrap }-

Candidates: 383
     Sinks: 383
Trap Valid: 1

A1 Candidates: 6
A2 Candidates: 462
A3 Candidates: 6
--> Trying to build the MEGA TRAP!!!
Generating the graph...
Data Structures generated! Time: 0.029118
in/out nodes generated! Time: 0.10734
Sinks computed! Time: 0.000542998
Propagating the sink nodes! Time: 0.002653
Building the resulting mega trap...
Done!

Final trap:

 -{ MegaTrap }-

Candidates: 462
     Sinks: 462
Trap Valid: 1

A1 Candidates: 2
A2 Candidates: 72
A3 Candidates: 2
--> Trying to build the MEGA TRAP!!!
Generating the graph...
Data Structures generated! Time: 0.00407502
in/out nodes generated! Time: 0.00498199
Sinks computed! Time: 3.69847e-05
Propagating the sink nodes! Time: 0.000115991
Building the resulting mega trap...
Done!

Final trap:

 -{ MegaTrap }-

Candidates: 72
     Sinks: 71
Trap Valid: 1

A1 Candidates: 6
A2 Candidates: 462
A3 Candidates: 6
--> Trying to build the MEGA TRAP!!!
Generating the graph...
Data Structures generated! Time: 0.027701
in/out nodes generated! Time: 0.110514
Sinks computed! Time: 0.000450969
Propagating the sink nodes! Time: 0.003281
Building the resulting mega trap...
Done!

Final trap:

 -{ MegaTrap }-

Candidates: 462
     Sinks: 462
Trap Valid: 1

A1 Candidates: 2
A2 Candidates: 72
A3 Candidates: 2
--> Trying to build the MEGA TRAP!!!
Generating the graph...
Data Structures generated! Time: 0.00451201
in/out nodes generated! Time: 0.00658
Sinks computed! Time: 0.00010103
Propagating the sink nodes! Time: 0.000128031
Building the resulting mega trap...
Done!

Final trap:

 -{ MegaTrap }-

Candidates: 72
     Sinks: 71
Trap Valid: 1

A1 Candidates: 6
A2 Candidates: 462
A3 Candidates: 6
--> Trying to build the MEGA TRAP!!!
Generating the graph...
Data Structures generated! Time: 0.029974
in/out nodes generated! Time: 0.105154
Sinks computed! Time: 0.000528991
Propagating the sink nodes! Time: 0.00248504
Building the resulting mega trap...
Done!

Final trap:

 -{ MegaTrap }-

Candidates: 462
     Sinks: 462
Trap Valid: 1

A1 Candidates: 5
A2 Candidates: 383
A3 Candidates: 5
--> Trying to build the MEGA TRAP!!!
Generating the graph...
Data Structures generated! Time: 0.023682
in/out nodes generated! Time: 0.090328
Sinks computed! Time: 0.000577986
Propagating the sink nodes! Time: 0.002343
Building the resulting mega trap...
Done!

Final trap:

 -{ MegaTrap }-

Candidates: 383
     Sinks: 383
Trap Valid: 1

Size: 2
[ 
 { (WOOD P3 TEAK) }
 { (WOOD P3 WALNUT) }
]
Goal 0 - (COLOUR P2 WHITE)
Future Goals size:8
Goals size:1
Search starts: 
	 Bound: 3.40282e+38
	 Best h(n) = 2, expanded: 0, generated: 1
	 Best h(n) = 1, expanded: 1, generated: 26
Plan found with cost: 2
Time: 0.023618
Generated: 97
Expanded: 4
Total time: 0.023639
Traps comuted offline: 0
Traps comuted online: 0
PSC Trapped deadends: 81
H2 Trapped deadends: 0
H1 Trapped deadends: 0
Nodes generated during search: 98
Nodes expanded during search: 4
0.023639Checking plan: soln.tmp
Plan executed successfully - checking goal
Plan valid
Final value: 2

Successful plans:
Value: 2
 soln.tmp 



NUMERIC_THREATS_MODE: 0

; Command line: /home/ssardina/git/soft/planning/app/app-trapper.git/tools/lpg -f pfile.pddl -o domain.pddl -n 1 -input_plan soln.tmp -seed 1234 -same_objects   


Parsing domain file:  domain 'WOODWORKING' defined ... done.
Parsing problem file:  problem 'WOOD-PROB' defined ... done.



Modality: Incremental Planner

Number of actions             :    1114
Number of conditional actions :       0
Number of facts               :      85


Analyzing Planning Problem:
	Temporal Planning Problem: NO
	Numeric Planning Problem: NO
	Problem with Timed Initial Literals: NO
	Problem with Derived Predicates: NO

Evaluation function weights:
     Action duration 0.00; Action cost 1.00


Computing mutex... done

 Load input plan:


 1.0000: (DO-SAW-LARGE B0 P2 SAW2 TEAK ROUGH S10 S8 S9 S7) [D:1.0000; C:1.0000]
 2.0000: (DO-GLAZE P2 GLAZER1 WHITE) [D:1.0000; C:1.0000]


Preprocessing total time: 0.01 seconds

Searching ('.' = every 50 search steps):
 solution found: 
 first_solution_cpu_time: 0.02 

Plan computed:
   Time: (ACTION) [action Duration; action Cost]
 0.0000: (DO-SAW-LARGE B0 P2 SAW2 TEAK ROUGH S10 S8 S9 S7) [D:1.00; C:1.00]
 1.0000: (DO-GLAZE P2 GLAZER1 WHITE) [D:1.00; C:1.00]


Solution number: 1
Total time:      0.02
Search time:     0.01
Actions:         2
Duration:        2.000
Plan quality:    2.000 
Total Num Flips: 1
Distance from input plan: 0 
     Plan file:       plan_pfile.pddl_1.SOL

Checking plan: emptyplan.tmp
Plan executed successfully - checking goal
Plan valid
Final value: 0

Successful plans:
Value: 0
 emptyplan.tmp 

Checking plan: emptyplan.tmp
Plan executed successfully - checking goal
Goal not satisfied
Plan invalid


Failed plans:
 emptyplan.tmp 
 --- OK.
 Match tree built with 1018 nodes.

PDDL problem description loaded: 
	Domain: WOODWORKING
	Problem: WOOD-PROB
	#Actions: 1018
	#Fluents: 80
Time to initialize h^2: 0.001787 secs
Time to evaluate h^2: 0.016195 secs
h^2 value = 2
A1 Candidates: 11
A2 Candidates: 401
A3 Candidates: 11
--> Trying to build the MEGA TRAP!!!
Generating the graph...
Data Structures generated! Time: 0.018931
in/out nodes generated! Time: 0.070988
Sinks computed! Time: 0.000496998
Propagating the sink nodes! Time: 0.00163101
Building the resulting mega trap...
Done!

Final trap:

 -{ MegaTrap }-

Candidates: 401
     Sinks: 396
Trap Valid: 1

A1 Candidates: 11
A2 Candidates: 65
A3 Candidates: 11
--> Trying to build the MEGA TRAP!!!
Generating the graph...
Data Structures generated! Time: 0.002837
in/out nodes generated! Time: 0.00268601
Sinks computed! Time: 2.70009e-05
Propagating the sink nodes! Time: 5.69969e-05
Building the resulting mega trap...
Done!

Final trap:

 -{ MegaTrap }-

Candidates: 65
     Sinks: 55
Trap Valid: 1

Size: 15
[ 
 { (BOARDSIZE B3 S3) }
 { (BOARDSIZE B0 S1) }
 { (BOARDSIZE B3 S0) }
 { (BOARDSIZE B2 S5) }
 { (BOARDSIZE B2 S2) }
 { (WOOD P3 WALNUT) }
 { (BOARDSIZE B3 S6) }
 { (BOARDSIZE B3 S3) }
 { (BOARDSIZE B4 S2) }
 { (BOARDSIZE B0 S1) }
 { (BOARDSIZE B3 S0) }
 { (BOARDSIZE B4 S0) }
 { (BOARDSIZE B2 S8) }
 { (BOARDSIZE B2 S5) }
 { (BOARDSIZE B2 S2) }
]
Goal 0 - (COLOUR P3 BLUE)
Future Goals size:2
Goals size:1
Search starts: 
	 Bound: 3.40282e+38
	 Best h(n) = 2, expanded: 0, generated: 1
	 Best h(n) = 1, expanded: 1, generated: 24
Plan found with cost: 2
Time: 0.018899
Generated: 95
Expanded: 4
Total time: 0.018914
Traps comuted offline: 0
Traps comuted online: 0
PSC Trapped deadends: 12
H2 Trapped deadends: 0
H1 Trapped deadends: 0
Nodes generated during search: 96
Nodes expanded during search: 4
0.018914Checking plan: soln.tmp
Plan executed successfully - checking goal
Plan valid
Final value: 2

Successful plans:
Value: 2
 soln.tmp 



NUMERIC_THREATS_MODE: 0

; Command line: /home/ssardina/git/soft/planning/app/app-trapper.git/tools/lpg -f pfile.pddl -o domain.pddl -n 1 -input_plan soln.tmp -seed 1234 -same_objects   


Parsing domain file:  domain 'WOODWORKING' defined ... done.
Parsing problem file:  problem 'WOOD-PROB' defined ... done.



Modality: Incremental Planner

Number of actions             :    1042
Number of conditional actions :       0
Number of facts               :      80


Analyzing Planning Problem:
	Temporal Planning Problem: NO
	Numeric Planning Problem: NO
	Problem with Timed Initial Literals: NO
	Problem with Derived Predicates: NO

Evaluation function weights:
     Action duration 0.00; Action cost 1.00


Computing mutex... done

 Load input plan:


 1.0000: (DO-SAW-LARGE B0 P3 SAW2 TEAK ROUGH S7 S5 S6 S4) [D:1.0000; C:1.0000]
 2.0000: (DO-GLAZE P3 GLAZER2 BLUE) [D:1.0000; C:1.0000]


Preprocessing total time: 0.01 seconds

Searching ('.' = every 50 search steps):
 solution found: 
 first_solution_cpu_time: 0.02 

Plan computed:
   Time: (ACTION) [action Duration; action Cost]
 0.0000: (DO-SAW-LARGE B0 P3 SAW2 TEAK ROUGH S7 S5 S6 S4) [D:1.00; C:1.00]
 1.0000: (DO-GLAZE P3 GLAZER2 BLUE) [D:1.00; C:1.00]


Solution number: 1
Total time:      0.02
Search time:     0.01
Actions:         2
Duration:        2.000
Plan quality:    2.000 
Total Num Flips: 1
Distance from input plan: 0 
     Plan file:       plan_pfile.pddl_1.SOL

Checking plan: emptyplan.tmp
Plan executed successfully - checking goal
Plan valid
Final value: 0

Successful plans:
Value: 0
 emptyplan.tmp 

Running trapper as follows: /home/ssardina/git/soft/planning/app/app-trapper.git/tools/trapper --domain domain.pddl --problem pfile-trap.pddl --search astar_trap --candidates a2 --goals 1 --plan soln.tmp
Running trapper as follows: /home/ssardina/git/soft/planning/app/app-trapper.git/tools/trapper --domain domain.pddl --problem pfile-trap.pddl --search astar_trap --candidates a2 --goals 1 --plan soln.tmp
Running trapper as follows: /home/ssardina/git/soft/planning/app/app-trapper.git/tools/trapper --domain domain.pddl --problem pfile-trap.pddl --search astar_trap --candidates a2 --goals 1 --plan soln.tmp
Running trapper as follows: /home/ssardina/git/soft/planning/app/app-trapper.git/tools/trapper --domain domain.pddl --problem pfile-trap.pddl --search astar_trap --candidates a2 --goals 1 --plan soln.tmp

SUCCESS
real 6.12
user 5.39
sys 0.73
